2	25
717	122	922	557	165	512	737	199	944	108	992	771	440	670	103	2	870	451	717	164	74	679	926	595	289	
181	719	932	175	90	499	588	496	894	628	278	919	813	952	387	332	649	114	442	973	949	75	264	306	337	
3248	3248	
